param n := 4;
param m := 50;
param nu:= 0.5;

param A:
    1     2     3     4     :=
1 0.169 0.029 0.773 0.365
2 0.488 0.252 0.508 0.363
3 0.295 0.476 0.613 0.228
4 0.09  0.636 0.945 0.526
5 0.913 0.293 0.341 0.561
6 0.232 0.064 0.577 0.569
7 0.861 0.738 0.618 0.634
8 0.856 0.121 0.355 0.364
9 0.206 0.659 0.96  0.819
10 0.641 0.909 0.522 0.586
11 0.479 0.498 0.728 0.82 
12 0.475 0.052 0.124 0.052
13 0.714 0.913 0.359 0.332
14 0.462 0.188 0.668 0.816
15 0.152 0.023 0.211 0.111
16 0.097 0.752 0.751 0.619
17 0.185 0.098 0.836 0.913
18 0.896 0.388 0.971 0.02 
19 0.592 0.734 0.352 0.951
20 0.899 0.413 0.254 0.566
21 0.807 0.718 0.252 0.017
22 0.094 0.114 0.581 0.845
23 0.919 0.03  0.831 0.755
24 0.75  0.651 0.332 0.721
25 0.771 0.312 0.405 0.124
26 0.471 0.022 0.676 0.725
27 0.906 0.532 0.306 0.158
28 0.136 0.251 0.664 0.717
29 0.397 0.636 0.126 0.228
30 0.069 0.978 0.042 0.401
31 0.713 0.172 0.011 0.118
32 0.275 0.589 0.318 0.951
33 0.907 0.857 0.846 0.214
34 0.395 0.349 0.266 0.059
35 0.362 0.456 0.702 0.488
36 0.092 0.557 0.663 0.134
37 0.362 0.847 0.13  0.373
38 0.426 0.648 0.553 0.744
39 0.868 0.651 0.455 0.714
40 0.469 0.109 0.214 0.735
41 0.28  0.096 0.624 0.982
42 0.308 0.074 0.141 0.971
43 0.098 0.333 0.055 0.228
44 0.02  0.654 0.353 0.573
45 0.952 0.441 0.05  0.407
46 0.915 0.876 0.264 0.129
47 0.432 0.409 0.707 0.056
48 0.291 0.364 0.465 0.432
49 0.673 0.53  0.668 0.728
50 0.373 0.748 0.412 0.726
;

param y :=
1 -1.0
2 -1.0
3 -1.0
4 -1.0
5 1.0
6 -1.0
7 1.0
8 -1.0
9 1.0
10 1.0
11 1.0
12 -1.0
13 1.0
14 1.0
15 -1.0
16 1.0
17 1.0
18 1.0
19 1.0
20 1.0
21 -1.0
22 -1.0
23 1.0
24 1.0
25 -1.0
26 -1.0
27 -1.0
28 -1.0
29 -1.0
30 -1.0
31 -1.0
32 1.0
33 1.0
34 -1.0
35 1.0
36 1.0
37 1.0
38 1.0
39 1.0
40 -1.0
41 -1.0
42 -1.0
43 -1.0
44 -1.0
45 -1.0
46 1.0
47 -1.0
48 -1.0
49 1.0
50 1.0
;